asp/input/in_50_25_10_1.lp
#const n = 50.
#const k = 25.
#const h = 10.
tile(1,14,11).
tile(2,17,13).
tile(3,25,9).
tile(4,11,15).
tile(5,25,6).
tile(6,3,4).
tile(7,19,6).
tile(8,16,15).
tile(9,5,24).
tile(10,17,11).
tile(11,11,22).
tile(12,2,4).
tile(13,20,12).
tile(14,19,19).
tile(15,24,4).
tile(16,5,13).
tile(17,21,4).
tile(18,6,1).
tile(19,14,13).
tile(20,6,22).
tile(21,2,18).
tile(22,21,21).
tile(23,7,22).
tile(24,3,25).
tile(25,21,5).
tile(26,4,25).
tile(27,11,3).
tile(28,8,12).
tile(29,3,16).
tile(30,11,2).
tile(31,22,6).
tile(32,3,13).
tile(33,5,20).
tile(34,18,11).
tile(35,10,8).
tile(36,23,20).
tile(37,6,8).
tile(38,15,14).
tile(39,5,20).
tile(40,7,10).
tile(41,5,9).
tile(42,22,21).
tile(43,23,20).
tile(44,3,23).
tile(45,7,2).
tile(46,20,1).
tile(47,7,2).
tile(48,8,24).
tile(49,4,13).
tile(50,16,9).
