instances/in_50_25_10_1.dzn
n = 50;
k = 25;
h = 10;
tiles = array2d(1..n, 1..2,
[ 14,11
, 17,13
, 25,9
, 11,15
, 25,6
, 3,4
, 19,6
, 16,15
, 5,24
, 17,11
, 11,22
, 2,4
, 20,12
, 19,19
, 24,4
, 5,13
, 21,4
, 6,1
, 14,13
, 6,22
, 2,18
, 21,21
, 7,22
, 3,25
, 21,5
, 4,25
, 11,3
, 8,12
, 3,16
, 11,2
, 22,6
, 3,13
, 5,20
, 18,11
, 10,8
, 23,20
, 6,8
, 15,14
, 5,20
, 7,10
, 5,9
, 22,21
, 23,20
, 3,23
, 7,2
, 20,1
, 7,2
, 8,24
, 4,13
, 16,9
]);